c Instancia generada aleatoriamente
p edge 40 67
e 1 11
e 1 17
e 1 18
e 1 21
e 1 24
e 1 37
e 2 4
e 2 34
e 4 33
e 4 36
e 5 7
e 5 23
e 5 37
e 5 39
e 6 39
e 7 18
e 7 21
e 7 39
e 8 12
e 8 18
e 8 20
e 8 24
e 8 26
e 8 29
e 8 30
e 8 39
e 9 33
e 10 31
e 10 35
e 10 39
e 11 12
e 11 26
e 11 31
e 12 25
e 13 16
e 13 34
e 15 19
e 15 28
e 15 33
e 15 39
e 16 22
e 16 26
e 17 18
e 17 30
e 18 27
e 19 28
e 19 33
e 20 26
e 20 29
e 20 31
e 20 34
e 22 24
e 22 26
e 22 37
e 22 40
e 24 26
e 25 27
e 27 37
e 27 38
e 28 34
e 28 36
e 29 33
e 32 38
e 33 38
e 36 38
e 37 38
e 39 40
